existingVMs = [ vmN1, vmN2, vmN3, vmN4, vmN5, vmN6, vmN7, vmN8, vmN9, vmN11, vmN12, vmN13, vmN14, vmN15, vmN17, vmN18, vmN19, vmN20, vmN21, vmN22, vmN23, vmN24, vmN25, vmN26, vmN27, vmN28, vmN29, vmN30, vmN31, vmN32, vmN35, vmN36, vmN37, vmN38, vmN39, vmN40, vmN41, vmN42, vmN43, vmN44, vmN45, vmN46, vmN47, vmN48, vmN49, vmN50, vmN51, vmN52, vmN53, vmN54, vmN55, vmN56, vmN57, vmN58, vmN59, vmN61, 
vmN62, vmN63, vmN64, vmN65, vmN66, vmN67, vmN68, vmN69, vmN70, vmN71, vmN72, vmN73, vmN74, vmN75, vmN76, vmN77, vmN78, vmN79, vmN80, vmN81, vmN82, vmN83, vmN84, vmN85, vmN86, vmN87 ];
vmCPU = [ 2, 2, 2, 6, 3, 2, 2, 3, 2, 2, 3, 4, 2, 10, 1, 3, 5, 5, 4, 2, 2, 2, 2, 2, 2, 2, 2, 2, 8, 7, 5, 2, 2, 2, 2, 5, 2, 6, 6, 7, 2, 2, 2, 2, 8, 6, 2, 5, 6, 3, 8, 1, 3, 2, 2, 4, 8, 2, 2, 2, 2, 6, 2, 2, 2, 2, 4, 2, 6, 3, 2, 2, 8, 3, 2, 4, 4, 2, 1, 3, 2, 2 ];
vmRAM = [ 12, 24, 4, 23, 16, 32, 7, 32, 8, 4, 46, 8, 16, 27, 20, 25, 30, 35, 48, 29, 29, 29, 29, 29, 29, 29, 29, 29, 90, 180, 48, 26, 26, 26, 26, 50, 32, 60, 58, 98, 15, 4, 4, 4, 20, 32, 32, 20, 50, 40, 46, 20, 16, 10, 10, 35, 70, 15, 15, 15, 15, 160, 4, 20, 31, 31, 24, 32, 50, 65, 16, 4, 36, 50, 11, 24, 30, 16, 16, 24, 20, 32 ];
vmDisk = [ 460, 1440, 110, 260, 1120, 200, 267, 134, 213, 77, 150, 208, 578, 525, 20, 450, 545, 380, 402, 163, 163, 163, 163, 163, 163, 163, 163, 163, 6431, 1722, 249, 224, 224, 224, 224, 4675, 200, 380, 336, 296, 574, 77, 77, 149, 426, 120, 2509, 273, 419, 237, 2267, 20, 149, 149, 149, 170, 2882, 151, 151, 151, 151, 1328, 110, 245, 225, 225, 3036, 200, 287, 153, 150, 77, 650, 800, 148, 1862, 539, 181, 2601, 244, 3466, 200 ];
vmCpuToRamRatio = [ 6, 14, 2, 4, 6, 16, 4, 11, 4, 2, 16, 2, 8, 4, 21, 10, 6, 7, 14, 16, 16, 16, 16, 16, 16, 16, 16, 16, 14, 28, 10, 14, 14, 14, 14, 10, 16, 10, 10, 14, 8, 2, 2, 2, 4, 6, 16, 4, 10, 14, 6, 21, 6, 6, 6, 10, 10, 8, 8, 8, 8, 28, 2, 10, 16, 16, 6, 16, 10, 22, 8, 2, 6, 19, 6, 6, 8, 8, 16, 8, 10, 16 ];


vmSizes = [Standard_D16ds_v4, Standard_D16d_v4, Standard_D16s_v4, Standard_D16_v4, Standard_D2ds_v4, Standard_D2d_v4, Standard_D2s_v4, Standard_D2_v4, Standard_D32ds_v4, Standard_D32d_v4, Standard_D32s_v4, Standard_D32_v4, Standard_D48ds_v4, Standard_D48d_v4, Standard_D48s_v4, Standard_D48_v4, Standard_D4ds_v4, Standard_D4d_v4, Standard_D4s_v4, Standard_D4_v4, Standard_D64ds_v4, Standard_D64d_v4, Standard_D64s_v4, Standard_D64_v4, Standard_D8ds_v4, Standard_D8d_v4, Standard_D8s_v4, Standard_D8_v4];

vmSizeCPU = [16, 16, 16, 16, 2, 2, 2, 2, 32, 32, 32, 32, 48, 48, 48, 48, 4, 4, 4, 4, 64, 64, 64, 64, 8, 8, 8, 8];

vmSizeRAM = [64, 64, 64, 64, 8, 8, 8, 8, 128, 128, 128, 128, 192, 192, 192, 192, 16, 16, 16, 16, 256, 256, 256, 256, 32, 32, 32, 32];

vmSizePrice = [1.64, 1.64, 1.504, 1.504, 0.205, 0.205, 0.188, 0.188, 3.28, 3.28, 3.008, 3.008, 4.92, 4.92, 4.512, 4.512, 0.41, 0.41, 0.376, 0.376, 6.56, 6.56, 6.016, 6.016, 0.82, 0.82, 0.752, 0.752];

vmSizeACU = [195, 195, 195, 195, 195, 195, 195, 195, 195, 195, 195, 195, 195, 195, 195, 195, 195, 195, 195, 195, 195, 195, 195, 195, 195, 195, 195, 195];

vmSizeCpuToRamRatio = [4, 4, 4, 4, 4, 4, 4, 4, 4, 4, 4, 4, 4, 4, 4, 4, 4, 4, 4, 4, 4, 4, 4, 4, 4, 4, 4, 4];

vmDisks = {E1, E2, E3, E4, E6, E10, E15, E20, E30, E40, E50, E60, E70, E80};
vmDiskSizes = [4, 8, 16, 32, 64, 128, 256, 512, 1024, 2048, 4096, 8192, 16384, 32767];
vmDiskPrice = [0.30, 0.60, 1.20, 2.40, 4.80, 9.60, 19.20, 38.40, 76.80, 153.60, 307.20, 614.40, 1228.80, 2457.60]; % this is Price per month
